c File: data_files/evolved_graphs/g0343.col
c
c Auto generated graph
c
p edge 100 2219
e 1 3
e 1 4
e 1 5
e 1 6
e 1 7
e 1 8
e 1 13
e 1 16
e 1 23
e 1 25
e 1 36
e 1 47
e 1 50
e 1 53
e 1 54
e 1 61
e 1 68
e 1 72
e 1 81
e 1 82
e 1 91
e 1 94
e 1 97
e 1 100
e 2 3
e 2 4
e 2 6
e 2 7
e 2 8
e 2 12
e 2 15
e 2 18
e 2 22
e 2 24
e 2 25
e 2 26
e 2 27
e 2 31
e 2 35
e 2 37
e 2 40
e 2 41
e 2 50
e 2 57
e 2 65
e 2 69
e 2 78
e 2 80
e 2 83
e 2 88
e 2 90
e 2 95
e 2 99
e 3 4
e 3 5
e 3 6
e 3 7
e 3 8
e 3 9
e 3 11
e 3 12
e 3 14
e 3 16
e 3 26
e 3 46
e 3 50
e 3 51
e 3 54
e 3 55
e 3 61
e 3 66
e 3 67
e 3 68
e 3 71
e 3 73
e 3 76
e 3 77
e 3 83
e 3 89
e 3 90
e 3 95
e 4 5
e 4 7
e 4 9
e 4 10
e 4 12
e 4 15
e 4 20
e 4 33
e 4 38
e 4 40
e 4 45
e 4 47
e 4 49
e 4 52
e 4 53
e 4 60
e 4 61
e 4 62
e 4 64
e 4 71
e 4 73
e 4 75
e 4 78
e 4 79
e 4 80
e 4 81
e 4 83
e 4 88
e 4 89
e 4 90
e 4 91
e 4 95
e 4 97
e 5 8
e 5 9
e 5 10
e 5 11
e 5 13
e 5 15
e 5 16
e 5 21
e 5 31
e 5 41
e 5 46
e 5 50
e 5 52
e 5 55
e 5 58
e 5 59
e 5 65
e 5 69
e 5 70
e 5 71
e 5 81
e 5 84
e 5 96
e 5 100
e 6 7
e 6 8
e 6 15
e 6 16
e 6 17
e 6 18
e 6 19
e 6 20
e 6 28
e 6 38
e 6 39
e 6 41
e 6 47
e 6 50
e 6 53
e 6 54
e 6 55
e 6 58
e 6 63
e 6 68
e 6 74
e 6 76
e 6 77
e 6 80
e 6 83
e 6 87
e 6 88
e 6 93
e 6 94
e 6 98
e 6 99
e 7 8
e 7 10
e 7 14
e 7 15
e 7 23
e 7 28
e 7 29
e 7 35
e 7 42
e 7 47
e 7 49
e 7 53
e 7 56
e 7 60
e 7 63
e 7 66
e 7 68
e 7 79
e 7 88
e 7 89
e 7 94
e 7 96
e 7 97
e 7 98
e 8 9
e 8 17
e 8 20
e 8 23
e 8 25
e 8 26
e 8 31
e 8 34
e 8 35
e 8 36
e 8 42
e 8 44
e 8 47
e 8 48
e 8 51
e 8 57
e 8 64
e 8 65
e 8 66
e 8 68
e 8 69
e 8 70
e 8 73
e 8 79
e 8 84
e 8 85
e 8 87
e 8 89
e 8 90
e 8 91
e 8 98
e 8 99
e 8 100
e 9 10
e 9 18
e 9 24
e 9 30
e 9 33
e 9 45
e 9 51
e 9 59
e 9 60
e 9 74
e 9 75
e 9 77
e 9 79
e 9 82
e 9 84
e 9 87
e 9 88
e 9 90
e 9 93
e 9 95
e 9 96
e 9 97
e 9 98
e 10 11
e 10 13
e 10 15
e 10 16
e 10 17
e 10 19
e 10 20
e 10 21
e 10 22
e 10 23
e 10 24
e 10 25
e 10 26
e 10 27
e 10 29
e 10 30
e 10 32
e 10 33
e 10 34
e 10 35
e 10 36
e 10 37
e 10 38
e 10 39
e 10 42
e 10 43
e 10 45
e 10 46
e 10 47
e 10 48
e 10 49
e 10 51
e 10 52
e 10 54
e 10 55
e 10 56
e 10 57
e 10 58
e 10 60
e 10 62
e 10 63
e 10 64
e 10 69
e 10 71
e 10 72
e 10 73
e 10 74
e 10 75
e 10 76
e 10 77
e 10 78
e 10 79
e 10 81
e 10 82
e 10 84
e 10 99
e 11 12
e 11 13
e 11 14
e 11 16
e 11 17
e 11 19
e 11 20
e 11 22
e 11 24
e 11 25
e 11 28
e 11 29
e 11 30
e 11 32
e 11 35
e 11 36
e 11 37
e 11 38
e 11 39
e 11 41
e 11 42
e 11 44
e 11 45
e 11 47
e 11 48
e 11 49
e 11 50
e 11 51
e 11 52
e 11 53
e 11 54
e 11 55
e 11 58
e 11 59
e 11 61
e 11 62
e 11 64
e 11 67
e 11 69
e 11 70
e 11 71
e 11 72
e 11 73
e 11 76
e 11 78
e 11 82
e 11 83
e 11 84
e 11 87
e 11 89
e 12 13
e 12 14
e 12 16
e 12 17
e 12 18
e 12 19
e 12 21
e 12 23
e 12 24
e 12 25
e 12 26
e 12 27
e 12 29
e 12 31
e 12 32
e 12 34
e 12 35
e 12 36
e 12 38
e 12 39
e 12 42
e 12 43
e 12 44
e 12 47
e 12 48
e 12 49
e 12 51
e 12 52
e 12 53
e 12 54
e 12 56
e 12 58
e 12 61
e 12 62
e 12 63
e 12 66
e 12 67
e 12 69
e 12 71
e 12 72
e 12 76
e 12 77
e 12 78
e 12 79
e 12 81
e 12 82
e 12 84
e 12 85
e 13 14
e 13 15
e 13 16
e 13 19
e 13 22
e 13 23
e 13 25
e 13 26
e 13 31
e 13 32
e 13 35
e 13 38
e 13 40
e 13 41
e 13 44
e 13 46
e 13 51
e 13 54
e 13 56
e 13 57
e 13 58
e 13 59
e 13 60
e 13 61
e 13 62
e 13 63
e 13 65
e 13 66
e 13 68
e 13 69
e 13 70
e 13 71
e 13 73
e 13 75
e 13 77
e 13 78
e 13 79
e 13 81
e 13 83
e 13 84
e 14 15
e 14 16
e 14 17
e 14 18
e 14 19
e 14 23
e 14 24
e 14 25
e 14 26
e 14 27
e 14 30
e 14 32
e 14 34
e 14 39
e 14 40
e 14 41
e 14 43
e 14 44
e 14 45
e 14 46
e 14 49
e 14 50
e 14 51
e 14 52
e 14 53
e 14 54
e 14 56
e 14 57
e 14 58
e 14 59
e 14 60
e 14 62
e 14 63
e 14 64
e 14 66
e 14 67
e 14 70
e 14 71
e 14 73
e 14 75
e 14 78
e 14 79
e 14 80
e 14 81
e 14 84
e 14 100
e 15 17
e 15 18
e 15 20
e 15 21
e 15 23
e 15 25
e 15 26
e 15 28
e 15 29
e 15 31
e 15 33
e 15 34
e 15 35
e 15 36
e 15 38
e 15 39
e 15 42
e 15 43
e 15 45
e 15 46
e 15 47
e 15 48
e 15 51
e 15 52
e 15 54
e 15 55
e 15 56
e 15 57
e 15 58
e 15 60
e 15 63
e 15 64
e 15 66
e 15 68
e 15 69
e 15 70
e 15 72
e 15 73
e 15 77
e 15 78
e 15 79
e 15 82
e 15 83
e 15 93
e 15 95
e 16 17
e 16 18
e 16 19
e 16 20
e 16 22
e 16 23
e 16 25
e 16 26
e 16 27
e 16 28
e 16 29
e 16 30
e 16 31
e 16 32
e 16 34
e 16 35
e 16 38
e 16 39
e 16 40
e 16 43
e 16 45
e 16 48
e 16 51
e 16 52
e 16 57
e 16 58
e 16 60
e 16 61
e 16 63
e 16 65
e 16 66
e 16 68
e 16 70
e 16 71
e 16 74
e 16 75
e 16 76
e 16 77
e 16 79
e 16 80
e 16 81
e 16 82
e 16 84
e 16 88
e 16 92
e 16 99
e 17 18
e 17 19
e 17 20
e 17 21
e 17 23
e 17 24
e 17 25
e 17 26
e 17 27
e 17 32
e 17 34
e 17 35
e 17 36
e 17 40
e 17 41
e 17 42
e 17 43
e 17 44
e 17 46
e 17 50
e 17 52
e 17 53
e 17 54
e 17 55
e 17 56
e 17 57
e 17 58
e 17 63
e 17 64
e 17 66
e 17 67
e 17 68
e 17 69
e 17 70
e 17 71
e 17 72
e 17 73
e 17 74
e 17 75
e 17 76
e 17 77
e 17 79
e 17 81
e 17 82
e 17 83
e 17 84
e 17 92
e 17 96
e 18 19
e 18 20
e 18 21
e 18 22
e 18 23
e 18 24
e 18 25
e 18 26
e 18 27
e 18 29
e 18 30
e 18 31
e 18 33
e 18 34
e 18 36
e 18 37
e 18 38
e 18 39
e 18 41
e 18 42
e 18 47
e 18 48
e 18 50
e 18 52
e 18 53
e 18 55
e 18 56
e 18 57
e 18 60
e 18 61
e 18 62
e 18 63
e 18 64
e 18 65
e 18 67
e 18 68
e 18 69
e 18 70
e 18 71
e 18 72
e 18 73
e 18 76
e 18 79
e 18 80
e 18 81
e 18 83
e 18 84
e 19 23
e 19 24
e 19 25
e 19 26
e 19 28
e 19 31
e 19 32
e 19 35
e 19 37
e 19 40
e 19 41
e 19 42
e 19 43
e 19 44
e 19 45
e 19 49
e 19 50
e 19 51
e 19 52
e 19 53
e 19 55
e 19 56
e 19 57
e 19 58
e 19 60
e 19 61
e 19 63
e 19 65
e 19 66
e 19 67
e 19 70
e 19 71
e 19 73
e 19 74
e 19 76
e 19 77
e 19 78
e 19 79
e 19 80
e 19 81
e 19 82
e 19 84
e 20 21
e 20 24
e 20 26
e 20 27
e 20 28
e 20 30
e 20 31
e 20 32
e 20 34
e 20 35
e 20 37
e 20 41
e 20 42
e 20 44
e 20 48
e 20 49
e 20 50
e 20 52
e 20 54
e 20 55
e 20 56
e 20 59
e 20 61
e 20 62
e 20 63
e 20 64
e 20 65
e 20 68
e 20 69
e 20 71
e 20 73
e 20 74
e 20 75
e 20 76
e 20 78
e 20 79
e 20 80
e 20 81
e 20 82
e 20 83
e 20 84
e 20 95
e 21 22
e 21 23
e 21 27
e 21 29
e 21 31
e 21 33
e 21 35
e 21 38
e 21 39
e 21 40
e 21 41
e 21 42
e 21 43
e 21 44
e 21 45
e 21 46
e 21 47
e 21 48
e 21 49
e 21 51
e 21 52
e 21 53
e 21 57
e 21 58
e 21 59
e 21 65
e 21 66
e 21 67
e 21 70
e 21 72
e 21 75
e 21 76
e 21 77
e 21 78
e 21 81
e 21 82
e 21 83
e 21 84
e 22 23
e 22 24
e 22 25
e 22 26
e 22 27
e 22 28
e 22 31
e 22 32
e 22 33
e 22 34
e 22 35
e 22 36
e 22 37
e 22 38
e 22 40
e 22 43
e 22 44
e 22 46
e 22 49
e 22 52
e 22 53
e 22 55
e 22 56
e 22 58
e 22 60
e 22 62
e 22 63
e 22 64
e 22 66
e 22 67
e 22 68
e 22 69
e 22 71
e 22 72
e 22 75
e 22 77
e 22 79
e 22 80
e 22 81
e 22 82
e 22 84
e 22 87
e 22 98
e 23 25
e 23 28
e 23 29
e 23 31
e 23 32
e 23 33
e 23 34
e 23 35
e 23 37
e 23 42
e 23 48
e 23 49
e 23 55
e 23 56
e 23 58
e 23 60
e 23 61
e 23 62
e 23 63
e 23 66
e 23 67
e 23 70
e 23 71
e 23 72
e 23 74
e 23 76
e 23 77
e 23 78
e 23 79
e 23 81
e 23 82
e 23 83
e 24 26
e 24 27
e 24 28
e 24 29
e 24 30
e 24 32
e 24 35
e 24 36
e 24 37
e 24 40
e 24 42
e 24 43
e 24 44
e 24 45
e 24 46
e 24 47
e 24 49
e 24 50
e 24 52
e 24 56
e 24 57
e 24 58
e 24 60
e 24 61
e 24 62
e 24 63
e 24 65
e 24 67
e 24 68
e 24 76
e 24 77
e 24 78
e 24 80
e 24 81
e 24 82
e 24 83
e 24 84
e 25 26
e 25 29
e 25 30
e 25 31
e 25 32
e 25 33
e 25 34
e 25 35
e 25 36
e 25 37
e 25 39
e 25 42
e 25 43
e 25 44
e 25 46
e 25 48
e 25 51
e 25 54
e 25 55
e 25 58
e 25 59
e 25 60
e 25 61
e 25 62
e 25 63
e 25 64
e 25 68
e 25 69
e 25 70
e 25 71
e 25 72
e 25 73
e 25 74
e 25 77
e 25 78
e 25 80
e 25 83
e 25 84
e 25 95
e 25 100
e 26 27
e 26 28
e 26 29
e 26 31
e 26 32
e 26 33
e 26 35
e 26 38
e 26 39
e 26 42
e 26 43
e 26 48
e 26 50
e 26 52
e 26 54
e 26 55
e 26 56
e 26 57
e 26 60
e 26 63
e 26 66
e 26 67
e 26 69
e 26 71
e 26 72
e 26 73
e 26 74
e 26 75
e 26 76
e 26 78
e 26 79
e 26 80
e 26 81
e 26 83
e 26 84
e 27 29
e 27 30
e 27 31
e 27 33
e 27 34
e 27 35
e 27 37
e 27 39
e 27 40
e 27 41
e 27 43
e 27 46
e 27 48
e 27 49
e 27 50
e 27 52
e 27 54
e 27 55
e 27 57
e 27 58
e 27 59
e 27 60
e 27 61
e 27 63
e 27 65
e 27 66
e 27 67
e 27 68
e 27 71
e 27 72
e 27 73
e 27 74
e 27 75
e 27 77
e 27 80
e 27 98
e 28 29
e 28 30
e 28 31
e 28 33
e 28 35
e 28 37
e 28 38
e 28 40
e 28 41
e 28 42
e 28 43
e 28 44
e 28 45
e 28 46
e 28 47
e 28 50
e 28 51
e 28 53
e 28 55
e 28 56
e 28 57
e 28 58
e 28 59
e 28 64
e 28 65
e 28 66
e 28 67
e 28 68
e 28 69
e 28 70
e 28 71
e 28 72
e 28 73
e 28 76
e 28 77
e 28 81
e 28 92
e 29 31
e 29 33
e 29 34
e 29 35
e 29 36
e 29 39
e 29 40
e 29 41
e 29 42
e 29 43
e 29 45
e 29 46
e 29 48
e 29 51
e 29 52
e 29 53
e 29 56
e 29 58
e 29 59
e 29 60
e 29 61
e 29 62
e 29 63
e 29 64
e 29 65
e 29 66
e 29 67
e 29 68
e 29 69
e 29 72
e 29 74
e 29 75
e 29 76
e 29 77
e 29 78
e 29 79
e 29 80
e 29 81
e 29 82
e 29 83
e 29 84
e 29 93
e 30 31
e 30 33
e 30 34
e 30 35
e 30 36
e 30 39
e 30 40
e 30 41
e 30 42
e 30 44
e 30 46
e 30 47
e 30 48
e 30 51
e 30 52
e 30 53
e 30 57
e 30 59
e 30 60
e 30 61
e 30 62
e 30 63
e 30 66
e 30 67
e 30 68
e 30 70
e 30 71
e 30 72
e 30 74
e 30 75
e 30 79
e 30 80
e 30 81
e 30 82
e 30 83
e 30 84
e 30 96
e 31 32
e 31 34
e 31 35
e 31 39
e 31 40
e 31 42
e 31 44
e 31 45
e 31 46
e 31 47
e 31 48
e 31 51
e 31 53
e 31 54
e 31 55
e 31 57
e 31 58
e 31 59
e 31 61
e 31 62
e 31 63
e 31 65
e 31 67
e 31 68
e 31 69
e 31 70
e 31 72
e 31 73
e 31 74
e 31 75
e 31 76
e 31 77
e 31 79
e 31 80
e 31 82
e 31 83
e 31 85
e 31 90
e 32 35
e 32 36
e 32 37
e 32 38
e 32 40
e 32 41
e 32 42
e 32 43
e 32 44
e 32 45
e 32 47
e 32 50
e 32 51
e 32 52
e 32 53
e 32 56
e 32 57
e 32 59
e 32 60
e 32 61
e 32 62
e 32 63
e 32 65
e 32 66
e 32 68
e 32 69
e 32 70
e 32 71
e 32 72
e 32 74
e 32 77
e 32 78
e 32 80
e 32 81
e 32 82
e 32 84
e 32 85
e 32 94
e 33 34
e 33 35
e 33 36
e 33 38
e 33 40
e 33 41
e 33 42
e 33 44
e 33 45
e 33 46
e 33 49
e 33 50
e 33 52
e 33 53
e 33 54
e 33 56
e 33 57
e 33 59
e 33 62
e 33 63
e 33 66
e 33 68
e 33 70
e 33 73
e 33 76
e 33 78
e 33 79
e 33 81
e 33 84
e 33 100
e 34 35
e 34 36
e 34 38
e 34 39
e 34 40
e 34 41
e 34 42
e 34 43
e 34 44
e 34 45
e 34 46
e 34 47
e 34 48
e 34 52
e 34 53
e 34 54
e 34 55
e 34 56
e 34 57
e 34 58
e 34 62
e 34 64
e 34 66
e 34 67
e 34 71
e 34 73
e 34 74
e 34 79
e 34 80
e 34 82
e 34 94
e 34 96
e 35 36
e 35 37
e 35 38
e 35 39
e 35 40
e 35 41
e 35 42
e 35 43
e 35 44
e 35 46
e 35 48
e 35 49
e 35 50
e 35 52
e 35 54
e 35 55
e 35 56
e 35 57
e 35 58
e 35 61
e 35 62
e 35 63
e 35 64
e 35 65
e 35 69
e 35 70
e 35 71
e 35 74
e 35 76
e 35 77
e 35 78
e 35 80
e 35 81
e 35 82
e 35 88
e 36 37
e 36 38
e 36 39
e 36 40
e 36 41
e 36 42
e 36 43
e 36 44
e 36 45
e 36 46
e 36 47
e 36 49
e 36 50
e 36 52
e 36 54
e 36 58
e 36 59
e 36 61
e 36 62
e 36 63
e 36 64
e 36 65
e 36 66
e 36 67
e 36 69
e 36 70
e 36 71
e 36 72
e 36 73
e 36 74
e 36 75
e 36 77
e 36 78
e 36 79
e 36 80
e 36 81
e 36 82
e 36 93
e 36 94
e 36 100
e 37 38
e 37 39
e 37 40
e 37 42
e 37 45
e 37 48
e 37 49
e 37 52
e 37 53
e 37 54
e 37 56
e 37 58
e 37 59
e 37 60
e 37 61
e 37 62
e 37 63
e 37 64
e 37 68
e 37 69
e 37 71
e 37 73
e 37 74
e 37 75
e 37 77
e 37 78
e 37 80
e 37 81
e 37 82
e 37 83
e 37 89
e 37 94
e 37 99
e 38 39
e 38 40
e 38 41
e 38 43
e 38 45
e 38 46
e 38 48
e 38 49
e 38 50
e 38 51
e 38 52
e 38 56
e 38 57
e 38 60
e 38 62
e 38 63
e 38 64
e 38 68
e 38 69
e 38 70
e 38 71
e 38 72
e 38 73
e 38 74
e 38 81
e 38 83
e 38 92
e 38 96
e 39 40
e 39 41
e 39 42
e 39 43
e 39 45
e 39 46
e 39 48
e 39 49
e 39 51
e 39 52
e 39 53
e 39 55
e 39 56
e 39 60
e 39 62
e 39 66
e 39 67
e 39 68
e 39 69
e 39 70
e 39 71
e 39 72
e 39 73
e 39 74
e 39 75
e 39 76
e 39 78
e 39 79
e 39 80
e 39 81
e 39 82
e 39 84
e 40 41
e 40 42
e 40 45
e 40 46
e 40 49
e 40 50
e 40 51
e 40 52
e 40 53
e 40 54
e 40 55
e 40 58
e 40 59
e 40 60
e 40 61
e 40 62
e 40 63
e 40 66
e 40 67
e 40 68
e 40 69
e 40 71
e 40 76
e 40 79
e 40 80
e 40 81
e 40 82
e 40 84
e 40 89
e 41 42
e 41 44
e 41 48
e 41 49
e 41 51
e 41 53
e 41 54
e 41 55
e 41 56
e 41 57
e 41 58
e 41 64
e 41 65
e 41 66
e 41 67
e 41 68
e 41 69
e 41 72
e 41 73
e 41 75
e 41 77
e 41 78
e 41 79
e 41 80
e 41 81
e 41 82
e 41 83
e 41 84
e 41 85
e 41 92
e 42 43
e 42 44
e 42 45
e 42 46
e 42 47
e 42 48
e 42 49
e 42 52
e 42 53
e 42 56
e 42 59
e 42 60
e 42 61
e 42 62
e 42 63
e 42 65
e 42 66
e 42 67
e 42 68
e 42 69
e 42 71
e 42 72
e 42 73
e 42 74
e 42 76
e 42 79
e 42 81
e 42 82
e 42 97
e 42 98
e 43 44
e 43 50
e 43 51
e 43 52
e 43 53
e 43 55
e 43 56
e 43 60
e 43 64
e 43 67
e 43 71
e 43 73
e 43 74
e 43 75
e 43 77
e 43 79
e 43 80
e 43 81
e 43 82
e 43 83
e 43 87
e 43 97
e 43 99
e 44 46
e 44 47
e 44 48
e 44 50
e 44 51
e 44 53
e 44 54
e 44 55
e 44 57
e 44 58
e 44 60
e 44 61
e 44 62
e 44 63
e 44 64
e 44 65
e 44 66
e 44 68
e 44 71
e 44 72
e 44 75
e 44 76
e 44 77
e 44 78
e 44 79
e 44 81
e 44 82
e 44 84
e 45 47
e 45 48
e 45 49
e 45 50
e 45 54
e 45 55
e 45 57
e 45 58
e 45 59
e 45 60
e 45 61
e 45 64
e 45 66
e 45 67
e 45 68
e 45 69
e 45 71
e 45 75
e 45 76
e 45 77
e 45 78
e 45 80
e 45 82
e 45 92
e 46 50
e 46 51
e 46 52
e 46 57
e 46 61
e 46 62
e 46 63
e 46 64
e 46 65
e 46 66
e 46 67
e 46 68
e 46 70
e 46 71
e 46 72
e 46 73
e 46 75
e 46 77
e 46 79
e 46 80
e 46 81
e 46 82
e 46 83
e 46 84
e 46 87
e 46 94
e 46 97
e 46 99
e 47 48
e 47 50
e 47 52
e 47 53
e 47 54
e 47 55
e 47 57
e 47 60
e 47 61
e 47 64
e 47 65
e 47 67
e 47 68
e 47 69
e 47 71
e 47 76
e 47 77
e 47 78
e 47 80
e 47 81
e 47 83
e 48 49
e 48 53
e 48 54
e 48 57
e 48 58
e 48 62
e 48 63
e 48 67
e 48 69
e 48 70
e 48 71
e 48 73
e 48 74
e 48 78
e 48 79
e 48 80
e 48 81
e 48 83
e 48 84
e 48 89
e 48 96
e 49 50
e 49 51
e 49 54
e 49 55
e 49 56
e 49 57
e 49 58
e 49 59
e 49 61
e 49 62
e 49 63
e 49 64
e 49 66
e 49 68
e 49 69
e 49 70
e 49 71
e 49 73
e 49 74
e 49 75
e 49 76
e 49 77
e 49 78
e 49 79
e 49 80
e 49 82
e 49 83
e 50 52
e 50 53
e 50 56
e 50 59
e 50 60
e 50 61
e 50 64
e 50 66
e 50 68
e 50 69
e 50 70
e 50 71
e 50 72
e 50 73
e 50 75
e 50 76
e 50 78
e 50 81
e 50 82
e 50 84
e 50 92
e 51 54
e 51 55
e 51 56
e 51 57
e 51 58
e 51 60
e 51 61
e 51 62
e 51 63
e 51 64
e 51 65
e 51 66
e 51 68
e 51 70
e 51 71
e 51 72
e 51 73
e 51 74
e 51 75
e 51 77
e 51 78
e 51 79
e 51 81
e 51 82
e 51 84
e 51 94
e 52 53
e 52 54
e 52 55
e 52 56
e 52 57
e 52 58
e 52 60
e 52 61
e 52 62
e 52 65
e 52 66
e 52 68
e 52 69
e 52 70
e 52 71
e 52 72
e 52 73
e 52 74
e 52 75
e 52 76
e 52 77
e 52 78
e 52 79
e 52 80
e 52 81
e 52 82
e 52 83
e 52 84
e 52 93
e 53 54
e 53 56
e 53 57
e 53 61
e 53 62
e 53 63
e 53 64
e 53 66
e 53 68
e 53 69
e 53 71
e 53 72
e 53 73
e 53 74
e 53 75
e 53 78
e 53 83
e 53 94
e 54 55
e 54 58
e 54 59
e 54 61
e 54 62
e 54 65
e 54 67
e 54 69
e 54 70
e 54 71
e 54 72
e 54 73
e 54 74
e 54 75
e 54 76
e 54 77
e 54 78
e 54 80
e 54 83
e 54 84
e 54 89
e 54 90
e 55 56
e 55 60
e 55 62
e 55 65
e 55 69
e 55 73
e 55 75
e 55 77
e 55 78
e 55 79
e 55 80
e 55 81
e 55 83
e 55 84
e 55 89
e 56 58
e 56 59
e 56 60
e 56 61
e 56 62
e 56 63
e 56 66
e 56 67
e 56 68
e 56 69
e 56 70
e 56 71
e 56 72
e 56 75
e 56 76
e 56 77
e 56 78
e 56 81
e 56 83
e 56 92
e 57 58
e 57 60
e 57 63
e 57 64
e 57 66
e 57 67
e 57 70
e 57 71
e 57 72
e 57 75
e 57 77
e 57 78
e 57 80
e 57 81
e 57 82
e 57 84
e 57 89
e 58 61
e 58 66
e 58 67
e 58 68
e 58 69
e 58 71
e 58 72
e 58 73
e 58 74
e 58 75
e 58 76
e 58 77
e 58 79
e 58 80
e 58 81
e 58 82
e 58 83
e 58 84
e 59 61
e 59 62
e 59 63
e 59 64
e 59 65
e 59 66
e 59 67
e 59 68
e 59 70
e 59 71
e 59 72
e 59 74
e 59 76
e 59 77
e 59 78
e 59 79
e 59 80
e 59 82
e 59 83
e 59 87
e 59 93
e 60 63
e 60 65
e 60 69
e 60 70
e 60 72
e 60 73
e 60 76
e 60 78
e 60 80
e 60 81
e 60 82
e 60 83
e 60 84
e 60 91
e 61 62
e 61 65
e 61 68
e 61 69
e 61 70
e 61 71
e 61 74
e 61 77
e 61 78
e 61 80
e 61 82
e 61 83
e 61 84
e 61 97
e 62 64
e 62 65
e 62 66
e 62 67
e 62 68
e 62 69
e 62 71
e 62 74
e 62 75
e 62 77
e 62 78
e 62 79
e 62 80
e 62 82
e 62 83
e 62 84
e 62 97
e 63 66
e 63 67
e 63 68
e 63 71
e 63 75
e 63 77
e 63 78
e 63 84
e 63 86
e 64 66
e 64 68
e 64 70
e 64 71
e 64 73
e 64 74
e 64 76
e 64 77
e 64 79
e 64 80
e 64 82
e 64 83
e 64 84
e 64 87
e 64 99
e 65 66
e 65 67
e 65 69
e 65 70
e 65 72
e 65 73
e 65 76
e 65 77
e 65 78
e 65 80
e 65 82
e 66 68
e 66 69
e 66 70
e 66 72
e 66 73
e 66 74
e 66 77
e 66 78
e 66 79
e 66 80
e 66 82
e 66 83
e 66 87
e 67 68
e 67 69
e 67 70
e 67 71
e 67 72
e 67 73
e 67 74
e 67 77
e 67 78
e 67 79
e 67 83
e 67 84
e 67 99
e 68 69
e 68 70
e 68 71
e 68 72
e 68 74
e 68 75
e 68 76
e 68 77
e 68 78
e 68 79
e 68 80
e 68 82
e 68 83
e 68 84
e 68 86
e 68 87
e 68 100
e 69 71
e 69 72
e 69 73
e 69 75
e 69 76
e 69 77
e 69 79
e 69 80
e 69 81
e 69 82
e 69 83
e 69 84
e 70 72
e 70 73
e 70 74
e 70 75
e 70 76
e 70 77
e 70 78
e 70 79
e 70 80
e 70 82
e 70 83
e 70 84
e 70 96
e 71 72
e 71 73
e 71 74
e 71 75
e 71 76
e 71 78
e 71 79
e 71 80
e 71 83
e 71 96
e 71 99
e 72 73
e 72 74
e 72 75
e 72 76
e 72 77
e 72 78
e 72 79
e 72 80
e 72 81
e 72 82
e 72 83
e 72 84
e 72 88
e 72 95
e 72 96
e 73 74
e 73 76
e 73 77
e 73 78
e 73 79
e 73 81
e 73 82
e 73 83
e 73 94
e 74 75
e 74 78
e 74 82
e 74 97
e 74 99
e 74 100
e 75 76
e 75 78
e 75 79
e 75 80
e 75 81
e 75 82
e 75 83
e 75 84
e 75 91
e 75 98
e 76 77
e 76 78
e 76 80
e 76 81
e 76 83
e 76 84
e 76 99
e 77 79
e 77 80
e 77 81
e 78 80
e 78 81
e 78 82
e 78 84
e 78 93
e 78 96
e 79 81
e 79 82
e 79 83
e 79 89
e 79 96
e 80 81
e 80 87
e 80 92
e 81 82
e 81 83
e 82 84
e 82 87
e 83 84
e 83 89
e 84 96
e 85 87
e 85 92
e 85 93
e 85 94
e 85 95
e 85 96
e 85 99
e 86 88
e 86 89
e 86 91
e 86 92
e 86 95
e 86 96
e 86 97
e 86 98
e 86 100
e 87 88
e 87 89
e 87 91
e 87 92
e 87 93
e 87 97
e 87 99
e 87 100
e 88 89
e 88 91
e 88 92
e 88 93
e 88 95
e 88 97
e 88 98
e 88 99
e 88 100
e 89 91
e 89 92
e 89 94
e 89 95
e 89 97
e 89 98
e 89 99
e 90 91
e 90 92
e 90 93
e 90 94
e 90 95
e 90 96
e 90 97
e 90 98
e 90 99
e 91 93
e 91 94
e 91 95
e 91 96
e 91 99
e 92 93
e 92 95
e 92 96
e 92 97
e 92 98
e 92 99
e 92 100
e 93 94
e 93 97
e 93 98
e 93 99
e 94 95
e 94 96
e 94 97
e 94 98
e 94 99
e 95 97
e 95 99
e 95 100
e 96 99
e 96 100
e 97 98
e 97 100
e 98 99
e 99 100
